# 35460
param k := 6;
param n := 60;
param s := 1;
set E :=  (0,29) (0,57) (1,44) (2,41) (3,29) (4,40) (4,48) (4,50) (5,33) (6,10) (6,33) (6,49) (7,24) (8,20) (9,38) (10,53) (11,31) (12,38) (13,28) (14,43) (14,49) (15,32) (15,54) (15,55) (16,27) (17,25) (17,40) (18,41) (19,38) (20,41) (20,42) (20,43) (21,46) (22,38) (23,46) (23,54) (24,29) (24,49) (26,31) (26,38) (26,39) (27,46) (28,35) (30,31) (30,46) (31,53) (33,37) (33,42) (33,44) (33,52) (34,51) (35,46) (36,37) (38,53) (38,59) (40,44) (42,58) (45,46) (46,51) (47,52) (49,56);